200
120
100
100
100
98
98
97
97
97
96
96
95
94
94
94
94
93
93
93
92
91
91
91
91
89
89
89
89
88
88
88
87
86
86
86
85
84
84
84
83
83
82
81
81
80
80
80
80
79
79
79
79
78
77
77
77
76
76
75
75
75
75
75
74
74
73
72
72
72
71
71
70
70
69
69
69
68
67
67
66
66
64
64
64
63
62
62
62
61
60
60
60
60
60
59
58
58
57
56
56
54
54
53
53
52
52
52
52
51
49
49
49
49
49
47
47
47
46
46
46
45
45
44
44
42
41
41
41
40
40
39
38
38
37
36
36
36
33
32
31
31
30
30
30
30
29
28
27
26
26
23
22
21
21
21
21
21
20
20
20
20
19
18
18
18
16
16
15
13
13
12
12
11
10
10
10
10
9
9
9
8
8
7
7
7
6
6
5
5
4
4
3
3
3
3
2
2
2
1
1
1
